16527 13037 0 500 499 498 497 496 495 494 493 492 491 490 489 488 487 486 485 484 483 482 481 480 478 477 476 475 474 473 472 471 470 469 467 464 463 462 461 460 459 457 453 451 450 449 448 447 446 444 443 442 441 440 439 438 435 434 433 432 430 428 427 426 425 424 423 422 421 420 419 418 417 416 415 414 413 412 409 408 407 406 405 404 403 402 400 398 397 396 395 394 393 392 391 389 388 387 386 385 384 382 380 379 378 377 376 375 374 373 372 370 369 368 366 364 362 360 359 358 357 356 355 354 352 350 347 346 344 343 342 341 340 338 336 335 334 332 328 327 326 323 322 321 319 318 317 316 315 310 309 304 303 299 296 295 293 292 290 289 286 285 284 283 281 279 278 277 276 275 274 272 270 269 268 267 265 260 259 257 254 252 249 248 246 238 236 235 234 232 231 228 227 226 224 223 222 220 219 218 217 215 214 213 212 211 210 208 207 206 204 203 202 201 200 199 196 194 193 191 190 189 188 185 184 180 178 177 176 175 174 173 172 171 170 169 168 167 165 162 160 159 158 157 155 154 153 152 151 150 147 146 145 142 141 140 139 138 137 136 135 133 132 131 128 127 125 123 121 120 118 117 116 111 110 108 107 106 105 103 102 101 100 99 98 97 96 94 91 90 88 87 86 84 82 81 79 78 77 76 75 74 73 72 71 68 67 64 63 59 58 57 56 55 54 53 52 51 50 49 48 43 42 40 39 38 37 35 34 32 31 30 28 27 26 25 24 23 21 20 16 15 14 13 10 9 8 7 6 5 3 2 